(set-info :Origin "This instance was generated by: BanditFuzz-- an RL fuzzer for SMT solvers" )
(set-info :Author "Joe Scott, Fed Mora, Vijay Ganesh" )
(set-info :Contact "Joe Scott, joseph.scott@uwaterloo.ca")
(set-logic QF_BV)
(declare-const bool_0 Bool)
(declare-const bool_1 Bool)
(declare-const bool_2 Bool)
(declare-const bool_3 Bool)
(declare-const bool_4 Bool)
(declare-const bv_0 (_ BitVec 32))
(declare-const bv_1 (_ BitVec 32))
(declare-const bv_2 (_ BitVec 32))
(declare-const bv_3 (_ BitVec 32))
(declare-const bv_4 (_ BitVec 32))
(assert (bvsgt (bvashr (bvxor bv_1 #x6df08d4b ) (bvshl bv_4 #x263edfed )) (bvxor (bvnand bv_4 bv_3) (bvsrem bv_0 bv_4))))
(assert (bvsge (bvnor (bvadd #x6edc6a5f  bv_0) (bvand #x5c90e960  #xbf8cf7eb )) (bvnor (bvxor #x432c06f5  bv_4) (bvmul bv_1 #xebe1d7e2 ))))
(assert (bvugt (bvsrem (bvsdiv bv_4 bv_0) (bvxnor bv_1 #x4f0e2f7b )) (bvnor (bvsmod #x07750fbc  #x74f21a0e ) (bvnand bv_3 bv_1))))
(assert (bvule (bvurem (bvurem bv_0 #x310f5b38 ) (bvand bv_2 #x9cad9572 )) (bvmul (bvsmod bv_4 bv_1) (bvand bv_2 #xa28f7672 ))))
(assert (bvsle (bvnand (bvashr #xebc031d5  bv_3) (bvadd bv_2 bv_2)) (bvurem (bvand #xd645c969  bv_3) (bvashr #x1cbf9b78  bv_0))))
(check-sat)
(exit)
